NAME : ../File/prFile/tspFile/tsp_file16.tsp.424.tour
COMMENT : Length = 424
COMMENT : Found by LKH-3 [Keld Helsgaun] Wed Jun 14 17:47:17 2023
TYPE : TOUR
DIMENSION : 30
TOUR_SECTION
1
21
29
26
2
10
13
16
24
18
12
3
15
8
4
23
17
5
25
7
11
20
6
30
19
22
9
27
14
28
-1
EOF
